WARNING: for repeatability, setting FPU to use double precision
============================[ Problem Statistics ]=============================
|                                                                             |
|  Number of variables:            50                                         |
|  Number of clauses:             218                                         |
|  Parse time:                   0.00 s                                       |
|                                                                             |
============================[ Search Statistics ]==============================
| Conflicts |          ORIGINAL         |          LEARNT          | Progress |
|           |    Vars  Clauses Literals |    Limit  Clauses Lit/Cl |          |
===============================================================================
===============================================================================
restarts              : 1
conflicts             : 43             (30049 /sec)
decisions             : 48             (0.00 % random) (33543 /sec)
propagations          : 618            (431866 /sec)
conflict literals     : 159            (9.14 % deleted)
Memory used           : 20.00 MB
CPU time              : 0.001431 s

UNSATISFIABLE
